50
6008

807 448
949 487
218 841
148 655
19 484
735 255
3 625
285 560
553 676
188 588
551 672
440 409
554 410
573 437
650 237
67 788
45 121
671 876
57 4
386 160
680 253
501 136
114 175
267 117
126 792
482 719
82 272
740 4
995 857
757 206
949 406
977 28
357 2
975 403
172 385
1 224
396 654
491 590
79 670
529 20
717 879
380 288
662 615
95 603
460 884
870 847
494 237
567 424
105 870
113 586
